units metal
boundary p p p
atom_style atomic

read_data ${input_filename}

pair_style  usc
pair_coeff  * * ${potential_filename} H O Si
pair_modify coord 2 3 2.0 0.3
pair_modify coord 2 1 1.4 0.3
mass            1 1.00794
mass            2 15.9994
mass            3 28.08

group Si type 3 
group O type 2 
group H type 1

neighbor 2.0 bin 
neigh_modify every 1 delay 0 check yes 
variable seed equal 123
velocity all create 300 ${seed} mom yes loop geom

# thermalize the system 5ps 
variable dt equal 0.0005 
variable thermalising_time equal  5 # ps 
variable thermalising_steps equal ${thermalising_time}/${dt}

fix 1 all nvt temp 300 300 $(100*dt)
dump silica all custom 100 ${output_folder}/silica-passivated.dump id type x y z

log log_passivated-thermalized.lammps 
thermo_style custom step time temp etotal spcpu cpuremain
thermo 10

timestep ${dt}
run ${thermalising_steps}

write_data ${output_filename}
