units metal
boundary p p p
atom_style atomic

read_data ${input_filename}


pair_style  usc
pair_coeff  * * ${potential_filename} H O Si

pair_modify coord 2 3 2.0 0.3
pair_modify coord 2 1 1.4 0.3
mass            1 1.00794
mass            2 15.9994
mass            3 28.08


minimize 1e-8 1e-8 10000 10000

neighbor 2.0 bin 
neigh_modify every 1 delay 0 check yes 

velocity all create ${therm_temp} 277385 mom yes loop geom

# thermalize the system 5ps 
variable thermalising_time equal  ${therm_time}# ps 
variable thermalising_steps equal ${thermalising_time}/dt # 1M steps 

fix 1 all nvt temp 300 300 $(100*dt)

thermo 1000
thermo_style custom step time temp press pzz etotal spcpu cpuremain


timestep 0.0005
run ${thermalising_steps}

write_data ${output_filename}


